\ Model Sudoku Problem
\ LP format - for model browsing. Use MPS format to capture full model detail.
Minimize
 
Subject To
 R0: x_1_1 + x_1_2 + x_1_3 + x_1_4 + x_1_5 + x_1_6 + x_1_7 + x_1_8 + x_1_9
   = 502
 R1: x_2_1 + x_2_2 + x_2_3 + x_2_4 + x_2_5 + x_2_6 + x_2_7 + x_2_8 + x_2_9
   = 502
 R2: x_3_1 + x_3_2 + x_3_3 + x_3_4 + x_3_5 + x_3_6 + x_3_7 + x_3_8 + x_3_9
   = 502
 R3: x_4_1 + x_4_2 + x_4_3 + x_4_4 + x_4_5 + x_4_6 + x_4_7 + x_4_8 + x_4_9
   = 502
 R4: x_5_1 + x_5_2 + x_5_3 + x_5_4 + x_5_5 + x_5_6 + x_5_7 + x_5_8 + x_5_9
   = 502
 R5: x_6_1 + x_6_2 + x_6_3 + x_6_4 + x_6_5 + x_6_6 + x_6_7 + x_6_8 + x_6_9
   = 502
 R6: x_7_1 + x_7_2 + x_7_3 + x_7_4 + x_7_5 + x_7_6 + x_7_7 + x_7_8 + x_7_9
   = 502
 R7: x_8_1 + x_8_2 + x_8_3 + x_8_4 + x_8_5 + x_8_6 + x_8_7 + x_8_8 + x_8_9
   = 502
 R8: x_9_1 + x_9_2 + x_9_3 + x_9_4 + x_9_5 + x_9_6 + x_9_7 + x_9_8 + x_9_9
   = 502
 R9: x_1_1 + x_2_1 + x_3_1 + x_4_1 + x_5_1 + x_6_1 + x_7_1 + x_8_1 + x_9_1
   = 502
 R10: x_1_2 + x_2_2 + x_3_2 + x_4_2 + x_5_2 + x_6_2 + x_7_2 + x_8_2 + x_9_2
   = 502
 R11: x_1_3 + x_2_3 + x_3_3 + x_4_3 + x_5_3 + x_6_3 + x_7_3 + x_8_3 + x_9_3
   = 502
 R12: x_1_4 + x_2_4 + x_3_4 + x_4_4 + x_5_4 + x_6_4 + x_7_4 + x_8_4 + x_9_4
   = 502
 R13: x_1_5 + x_2_5 + x_3_5 + x_4_5 + x_5_5 + x_6_5 + x_7_5 + x_8_5 + x_9_5
   = 502
 R14: x_1_6 + x_2_6 + x_3_6 + x_4_6 + x_5_6 + x_6_6 + x_7_6 + x_8_6 + x_9_6
   = 502
 R15: x_1_7 + x_2_7 + x_3_7 + x_4_7 + x_5_7 + x_6_7 + x_7_7 + x_8_7 + x_9_7
   = 502
 R16: x_1_8 + x_2_8 + x_3_8 + x_4_8 + x_5_8 + x_6_8 + x_7_8 + x_8_8 + x_9_8
   = 502
 R17: x_1_9 + x_2_9 + x_3_9 + x_4_9 + x_5_9 + x_6_9 + x_7_9 + x_8_9 + x_9_9
   = 502
 R18: x_1_1 + x_1_2 + x_1_3 + x_2_1 + x_2_2 + x_2_3 + x_3_1 + x_3_2 + x_3_3
   = 502
 R19: x_1_4 + x_1_5 + x_1_6 + x_2_4 + x_2_5 + x_2_6 + x_3_4 + x_3_5 + x_3_6
   = 502
 R20: x_1_7 + x_1_8 + x_1_9 + x_2_7 + x_2_8 + x_2_9 + x_3_7 + x_3_8 + x_3_9
   = 502
 R21: x_4_1 + x_4_2 + x_4_3 + x_5_1 + x_5_2 + x_5_3 + x_6_1 + x_6_2 + x_6_3
   = 502
 R22: x_4_4 + x_4_5 + x_4_6 + x_5_4 + x_5_5 + x_5_6 + x_6_4 + x_6_5 + x_6_6
   = 502
 R23: x_4_7 + x_4_8 + x_4_9 + x_5_7 + x_5_8 + x_5_9 + x_6_7 + x_6_8 + x_6_9
   = 502
 R24: x_7_1 + x_7_2 + x_7_3 + x_8_1 + x_8_2 + x_8_3 + x_9_1 + x_9_2 + x_9_3
   = 502
 R25: x_7_4 + x_7_5 + x_7_6 + x_8_4 + x_8_5 + x_8_6 + x_9_4 + x_9_5 + x_9_6
   = 502
 R26: x_7_7 + x_7_8 + x_7_9 + x_8_7 + x_8_8 + x_8_9 + x_9_7 + x_9_8 + x_9_9
   = 502
 R27: x_1_4 = 31
 R28: x_1_7 = 3
 R29: x_2_5 = 1
 R30: x_3_9 = 7
 R31: x_4_2 = 63
 R32: x_4_6 = 3
 R33: x_5_1 = 15
 R34: x_6_2 = 0
 R35: x_6_5 = 63
 R36: x_6_6 = 255
 R37: x_6_9 = 3
 R38: x_7_1 = 63
 R39: x_7_3 = 127
 R40: x_7_4 = 1
 R41: x_7_8 = 3
 R42: x_8_2 = 7
Bounds
Generals
 x_1_1 x_1_2 x_1_3 x_1_4 x_1_5 x_1_6 x_1_7 x_1_8 x_1_9 x_2_1 x_2_2 x_2_3
 x_2_4 x_2_5 x_2_6 x_2_7 x_2_8 x_2_9 x_3_1 x_3_2 x_3_3 x_3_4 x_3_5 x_3_6
 x_3_7 x_3_8 x_3_9 x_4_1 x_4_2 x_4_3 x_4_4 x_4_5 x_4_6 x_4_7 x_4_8 x_4_9
 x_5_1 x_5_2 x_5_3 x_5_4 x_5_5 x_5_6 x_5_7 x_5_8 x_5_9 x_6_1 x_6_2 x_6_3
 x_6_4 x_6_5 x_6_6 x_6_7 x_6_8 x_6_9 x_7_1 x_7_2 x_7_3 x_7_4 x_7_5 x_7_6
 x_7_7 x_7_8 x_7_9 x_8_1 x_8_2 x_8_3 x_8_4 x_8_5 x_8_6 x_8_7 x_8_8 x_8_9
 x_9_1 x_9_2 x_9_3 x_9_4 x_9_5 x_9_6 x_9_7 x_9_8 x_9_9
End
